n = 90;
capacity = 100;
size = [80, 79, 79, 78, 77, 77, 76, 75, 74, 69, 68, 68, 67, 67, 67, 65, 65, 65, 64, 64, 63, 63, 62, 62, 61, 61, 61, 59, 57, 56, 56, 56, 56, 55, 54, 54, 54, 53, 52, 51, 51, 51, 51, 50, 50, 50, 50, 49, 49, 49, 48, 46, 45, 44, 44, 44, 43, 42, 42, 42, 41, 41, 41, 41, 40, 38, 37, 37, 36, 36, 33, 32, 32, 32, 32, 30, 30, 30, 30, 29, 29, 28, 26, 26, 25, 25, 25, 23, 21, 20];
